g3 0 1 0	# problem d3n16R8R9d01d1
 16 16 1 0 8	# vars, constraints, objectives, ranges, eqns
 5 1	# nonlinear constraints, objectives
 0 0	# network constraints: nonlinear, linear
 16 16 16	# nonlinear vars in constraints, objectives, both
 0 0 0 1	# linear network variables; functions; arith, flags
 0 0 0 0 0	# discrete variables: binary, integer, nonlinear (b,c,o)
 256 16	# nonzeros in Jacobian, gradients
 0 0	# max name lengths: constraints, variables
 0 0 0 0 0	# common exprs: b,c,o,c1,o1
b
0 0.86 2.17
0 0.12 2.94
0 0.08 2.52
0 0.2 2.77
0 0.06 2.06
0 0.54 2.81
0 0.86 2.57
0 0.25 2.93
0 0.81 2.72
0 0.99 2.71
0 0.91 2.82
0 0.25 2.8
0 0.3 2.71
0 0.4 2.94
0 0.86 2.86
0 0.04 2.9
r
2 227.625
2 1485.51
2 240.963
2 1424.73
2 279.258
4 138.525
4 129.689
4 113.86
4 98.692
4 97.438
4 85.772
4 107.207
4 143.405
2 106.918
2 142.542
2 69.697
C0
o54
13
o2
o2
n2.95
v0
v3
o2
o2
n2.28
v0
v15
o2
o2
n1.53
v1
v1
o2
o2
n2.55
v3
v14
o2
o2
n0.4
v4
v7
o2
o2
n9.63
v6
v7
o2
o2
n4.45
v6
v12
o2
o2
n4.87
v7
v12
o2
o2
n1.74
v8
v15
o2
o2
n3.17
v9
v15
o2
o2
n8.45
v10
v14
o2
o2
n0.34
v11
v11
o2
o2
n8.21
v13
v14
C1
o54
95
o2
o2
n7.6
v0
v3
o2
o2
n5.53
v0
v15
o2
o2
n4.76
v1
v1
o2
o2
n6.14
v3
v14
o2
o2
n2.76
v4
v7
o2
o2
n2.89
v6
v7
o2
o2
n8.71
v6
v12
o2
o2
n2.56
v7
v12
o2
o2
n1.01
v8
v15
o2
o2
n5.41
v9
v15
o2
o2
n1.65
v10
v14
o2
o2
n7.66
v11
v11
o2
o2
n1.65
v13
v14
o16
o2
o2
o2
n3.07
v0
v1
v7
o16
o2
o2
o2
n7.5
v0
v1
v9
o2
o2
o2
n3.82
v0
v1
v11
o2
o2
o2
n1.54
v0
v3
v9
o2
o2
o2
n5.98
v0
v4
v14
o2
o2
o2
n3.94
v0
v4
v15
o2
o2
o2
n10
v0
v5
v14
o2
o2
o2
n9.14
v0
v7
v7
o2
o2
o2
n1.33
v0
v9
v9
o2
o2
o2
n4.66
v0
v9
v11
o2
o2
o2
n1.75
v0
v9
v15
o2
o2
o2
n4.88
v0
v14
v14
o2
o2
o2
n6.49
v1
v1
v10
o2
o2
o2
n7.86
v1
v5
v9
o2
o2
o2
n7.54
v1
v5
v11
o2
o2
o2
n7.76
v1
v7
v10
o2
o2
o2
n8.5
v1
v8
v14
o2
o2
o2
n0.93
v1
v11
v11
o16
o2
o2
o2
n1.25
v1
v11
v12
o2
o2
o2
n8.21
v1
v11
v15
o2
o2
o2
n9.69
v1
v13
v14
o2
o2
o2
n1.48
v2
v2
v3
o2
o2
v2
v3
v15
o16
o2
o2
o2
n7.16
v2
v4
v5
o2
o2
o2
n9.6
v2
v4
v14
o2
o2
o2
n4.51
v2
v5
v10
o2
o2
o2
n4.19
v2
v5
v11
o2
o2
o2
n1.46
v2
v6
v8
o2
o2
o2
n3.15
v2
v8
v13
o2
o2
o2
n5.93
v2
v8
v14
o2
o2
o2
n8.72
v2
v8
v15
o2
o2
o2
n5.38
v2
v9
v9
o2
o2
o2
n5.05
v2
v10
v11
o2
o2
o2
n2.28
v2
v13
v14
o2
o2
o2
n0.65
v3
v3
v4
o2
o2
o2
n8.57
v3
v3
v12
o2
o2
o2
n0.46
v3
v3
v14
o2
o2
o2
n6.68
v3
v4
v6
o2
o2
o2
n7.87
v3
v5
v9
o2
o2
o2
n0.07
v3
v5
v12
o2
o2
o2
n1.92
v3
v6
v12
o2
o2
o2
n1.07
v3
v7
v10
o2
o2
o2
n0.2
v3
v13
v15
o2
o2
o2
n8.74
v3
v15
v15
o2
o2
o2
n2.5
v4
v4
v4
o2
o2
o2
n4.72
v4
v4
v11
o2
o2
o2
n5.7
v4
v4
v12
o2
o2
o2
n9.79
v4
v5
v6
o2
o2
o2
n5.2
v4
v5
v13
o2
o2
o2
n8.9
v4
v6
v9
o2
o2
o2
n3.13
v4
v7
v8
o2
o2
o2
n7.67
v4
v7
v11
o2
o2
o2
n8.67
v4
v10
v13
o2
o2
o2
n7.9
v4
v12
v12
o2
o2
o2
n0.83
v4
v12
v15
o2
o2
o2
n5.18
v5
v5
v8
o2
o2
o2
n9.04
v5
v6
v6
o2
o2
o2
n6.23
v5
v6
v9
o16
o2
o2
o2
n1.7
v5
v6
v12
o2
o2
o2
n8.81
v5
v8
v9
o2
o2
o2
n8.17
v5
v11
v12
o2
o2
o2
n2.11
v5
v12
v13
o16
o2
o2
o2
n4.49
v6
v6
v10
o2
o2
o2
n0.31
v6
v7
v11
o2
o2
o2
n8
v6
v9
v10
o16
o2
o2
o2
n7.2
v6
v10
v14
o2
o2
o2
n1.38
v7
v8
v10
o16
o2
o2
o2
n4.61
v7
v8
v12
o16
o2
o2
o2
n1.24
v8
v9
v9
o16
o2
o2
o2
n2.57
v8
v9
v12
o2
o2
o2
n1.73
v8
v9
v13
o2
o2
o2
n3.85
v8
v10
v14
o2
o2
o2
n8.3
v8
v10
v15
o2
o2
o2
n0.91
v8
v11
v14
o2
o2
o2
n2.13
v9
v9
v12
o2
o2
o2
n7.79
v9
v11
v15
o2
o2
o2
n0.4
v9
v12
v13
o2
o2
o2
n5.05
v9
v14
v14
o2
o2
o2
n2.71
v9
v14
v15
o2
o2
o2
n0.36
v10
v14
v14
o2
o2
o2
n9.06
v11
v11
v13
o2
o2
o2
n2.65
v12
v12
v15
C2
o54
13
o2
o2
n0.92
v0
v3
o2
o2
n4.47
v0
v15
o16
o2
o2
n3
v1
v1
o2
o2
n7.42
v3
v14
o2
o2
n3.6
v4
v7
o2
o2
n5.9
v6
v7
o2
o2
n0.55
v6
v12
o2
o2
n7.48
v7
v12
o2
o2
n5.09
v8
v15
o2
o2
n0.54
v9
v15
o2
o2
n7
v10
v14
o2
o2
n2.72
v11
v11
o2
o2
n3.32
v13
v14
C3
o54
95
o2
o2
n6.02
v0
v3
o2
o2
n7.67
v0
v15
o2
o2
n2.53
v1
v1
o2
o2
n2.17
v3
v14
o2
o2
n9.98
v4
v7
o2
o2
n1.84
v6
v7
o2
o2
n1.82
v6
v12
o16
o2
o2
n8.14
v7
v12
o2
o2
n3.02
v8
v15
o2
o2
n2.34
v9
v15
o16
o2
o2
n4.56
v10
v14
o2
o2
n8.83
v11
v11
o2
o2
n5.59
v13
v14
o2
o2
o2
n6.77
v0
v1
v7
o2
o2
o2
n0.94
v0
v1
v9
o2
o2
o2
n0.49
v0
v1
v11
o2
o2
o2
n6.89
v0
v3
v9
o2
o2
o2
n3.81
v0
v4
v14
o2
o2
o2
n2.98
v0
v4
v15
o2
o2
o2
n8.74
v0
v5
v14
o16
o2
o2
o2
n2.66
v0
v7
v7
o2
o2
o2
n3.8
v0
v9
v9
o2
o2
o2
n0.57
v0
v9
v11
o2
o2
o2
n2.29
v0
v9
v15
o2
o2
o2
n9.35
v0
v14
v14
o2
o2
o2
n5.73
v1
v1
v10
o2
o2
o2
n3.67
v1
v5
v9
o2
o2
o2
n3.04
v1
v5
v11
o2
o2
o2
n4.43
v1
v7
v10
o2
o2
o2
n0.37
v1
v8
v14
o2
o2
o2
n0.79
v1
v11
v11
o2
o2
o2
n2.34
v1
v11
v12
o2
o2
o2
n3
v1
v11
v15
o2
o2
o2
n9.66
v1
v13
v14
o2
o2
o2
n3.71
v2
v2
v3
o2
o2
o2
n3.57
v2
v3
v15
o2
o2
o2
n0.66
v2
v4
v5
o16
o2
o2
o2
n2.44
v2
v4
v14
o2
o2
o2
n8.49
v2
v5
v10
o2
o2
o2
n0.84
v2
v5
v11
o2
o2
o2
n2.58
v2
v6
v8
o16
o2
o2
o2
n6.3
v2
v8
v13
o2
o2
o2
n2.64
v2
v8
v14
o2
o2
o2
n4.15
v2
v8
v15
o2
o2
o2
n8.87
v2
v9
v9
o2
o2
o2
n5.78
v2
v10
v11
o2
o2
o2
n8.63
v2
v13
v14
o2
o2
o2
n0.57
v3
v3
v4
o2
o2
o2
n6.2
v3
v3
v12
o2
o2
o2
n6.77
v3
v3
v14
o2
o2
o2
n3.65
v3
v4
v6
o2
o2
o2
n1.83
v3
v5
v9
o16
o2
o2
o2
n5.59
v3
v5
v12
o2
o2
o2
n7.19
v3
v6
v12
o2
o2
o2
n5.5
v3
v7
v10
o2
o2
o2
n8.13
v3
v13
v15
o2
o2
o2
n6.59
v3
v15
v15
o2
o2
o2
n3.86
v4
v4
v4
o2
o2
o2
n4.9
v4
v4
v11
o2
o2
o2
n8.13
v4
v4
v12
o2
o2
o2
n7.57
v4
v5
v6
o2
o2
o2
n5.74
v4
v5
v13
o2
o2
o2
n3.93
v4
v6
v9
o2
o2
o2
n5.26
v4
v7
v8
o2
o2
o2
n2.37
v4
v7
v11
o2
o2
o2
n3.26
v4
v10
v13
o2
o2
o2
n0.75
v4
v12
v12
o2
o2
o2
n0.28
v4
v12
v15
o2
o2
o2
n3.1
v5
v5
v8
o2
o2
o2
n4.04
v5
v6
v6
o2
o2
o2
n0.59
v5
v6
v9
o2
o2
o2
n0.03
v5
v6
v12
o2
o2
o2
n9.3
v5
v8
v9
o2
o2
o2
n4.81
v5
v11
v12
o2
o2
o2
n2.97
v5
v12
v13
o2
o2
o2
n2.49
v6
v6
v10
o2
o2
o2
n3.22
v6
v7
v11
o2
o2
o2
n9.51
v6
v9
v10
o2
o2
o2
n5.19
v6
v10
v14
o2
o2
o2
n8.09
v7
v8
v10
o2
o2
o2
n1.49
v7
v8
v12
o2
o2
o2
n3.78
v8
v9
v9
o2
o2
o2
n2.05
v8
v9
v12
o2
o2
o2
n7.21
v8
v9
v13
o2
o2
o2
n2.94
v8
v10
v14
o2
o2
o2
n5.57
v8
v10
v15
o16
o2
o2
o2
n1.8
v8
v11
v14
o2
o2
o2
n3.97
v9
v9
v12
o2
o2
o2
n2.71
v9
v11
v15
o2
o2
o2
n2.09
v9
v12
v13
o2
o2
o2
n8.41
v9
v14
v14
o16
o2
o2
o2
n6.33
v9
v14
v15
o2
o2
o2
n2.57
v10
v14
v14
o2
o2
o2
n2.94
v11
v11
v13
o2
o2
o2
n0.01
v12
v12
v15
C4
o54
13
o2
o2
n5.46
v0
v3
o16
o2
o2
n7.09
v0
v15
o2
o2
n4.71
v1
v1
o2
o2
n7.44
v3
v14
o2
o2
n5.36
v4
v7
o2
o2
n4.6
v6
v7
o2
o2
n2.21
v6
v12
o2
o2
n8.63
v7
v12
o2
o2
n6.01
v8
v15
o2
o2
n8.02
v9
v15
o2
o2
n9.89
v10
v14
o2
o2
n0.5
v11
v11
o2
o2
n8.93
v13
v14
C5
n0
C6
n0
C7
n0
C8
n0
C9
n0
C10
n0
C11
n0
C12
n0
C13
n0
C14
n0
C15
n0
O0 0
o54
95
o2
o2
n5.75
v0
v3
o2
o2
n7.34
v0
v15
o2
o2
n2.71
v1
v1
o16
o2
o2
n5.86
v3
v14
o2
o2
n2.6
v4
v7
o2
o2
n7.16
v6
v7
o16
o2
o2
n6.71
v6
v12
o2
o2
n0.84
v7
v12
o2
o2
n3.37
v8
v15
o2
o2
n8.28
v9
v15
o2
o2
n1.18
v10
v14
o2
o2
n3.69
v11
v11
o2
o2
n1.51
v13
v14
o2
o2
o2
n9.83
v0
v1
v7
o2
o2
o2
n2.08
v0
v1
v9
o2
o2
o2
n2.28
v0
v1
v11
o2
o2
o2
n8
v0
v3
v9
o2
o2
o2
n1.39
v0
v4
v14
o2
o2
o2
n1.89
v0
v4
v15
o2
o2
o2
n5.98
v0
v5
v14
o16
o2
o2
o2
n9.68
v0
v7
v7
o16
o2
o2
o2
n7.86
v0
v9
v9
o2
o2
o2
n3.6
v0
v9
v11
o2
o2
o2
n1.15
v0
v9
v15
o2
o2
o2
n8.87
v0
v14
v14
o2
o2
o2
n5.61
v1
v1
v10
o16
o2
o2
o2
n5.89
v1
v5
v9
o2
o2
o2
n7.89
v1
v5
v11
o2
o2
o2
n4.12
v1
v7
v10
o2
o2
o2
n9.86
v1
v8
v14
o2
o2
o2
n9.59
v1
v11
v11
o2
o2
o2
n8.07
v1
v11
v12
o2
o2
o2
n2.31
v1
v11
v15
o2
o2
o2
n3.33
v1
v13
v14
o2
o2
o2
n5.35
v2
v2
v3
o2
o2
o2
n4.58
v2
v3
v15
o2
o2
o2
n1.99
v2
v4
v5
o2
o2
o2
n6.07
v2
v4
v14
o2
o2
o2
n2.62
v2
v5
v10
o2
o2
o2
n1.83
v2
v5
v11
o2
o2
o2
n7.92
v2
v6
v8
o2
o2
o2
n6.65
v2
v8
v13
o2
o2
o2
n9.82
v2
v8
v14
o2
o2
o2
n7.5
v2
v8
v15
o2
o2
o2
n6.91
v2
v9
v9
o16
o2
o2
o2
n4.52
v2
v10
v11
o2
o2
o2
n5.77
v2
v13
v14
o2
o2
o2
n5.59
v3
v3
v4
o2
o2
o2
n4.86
v3
v3
v12
o2
o2
o2
n3.63
v3
v3
v14
o2
o2
o2
n2.43
v3
v4
v6
o2
o2
o2
n0.61
v3
v5
v9
o2
o2
o2
n5.14
v3
v5
v12
o2
o2
o2
n7.34
v3
v6
v12
o2
o2
o2
n8.82
v3
v7
v10
o2
o2
o2
n3.16
v3
v13
v15
o2
o2
o2
n8.09
v3
v15
v15
o2
o2
o2
n4.54
v4
v4
v4
o2
o2
o2
n6.21
v4
v4
v11
o2
o2
o2
n6.64
v4
v4
v12
o2
o2
o2
n1.9
v4
v5
v6
o2
o2
o2
n7.01
v4
v5
v13
o2
o2
o2
n4.57
v4
v6
v9
o2
o2
o2
n5.27
v4
v7
v8
o2
o2
o2
n4.62
v4
v7
v11
o2
o2
o2
n8.09
v4
v10
v13
o2
o2
o2
n0.27
v4
v12
v12
o16
o2
o2
o2
n3.34
v4
v12
v15
o2
o2
o2
n7.56
v5
v5
v8
o2
o2
o2
n2.56
v5
v6
v6
o2
o2
o2
n5.03
v5
v6
v9
o16
o2
o2
o2
n5.76
v5
v6
v12
o2
o2
o2
n9.77
v5
v8
v9
o2
o2
o2
n7.73
v5
v11
v12
o2
o2
o2
n6.11
v5
v12
v13
o2
o2
o2
n9.74
v6
v6
v10
o2
o2
o2
n3.92
v6
v7
v11
o2
o2
o2
n5.87
v6
v9
v10
o2
o2
o2
n7.73
v6
v10
v14
o2
o2
o2
n7.88
v7
v8
v10
o16
o2
o2
o2
n3.38
v7
v8
v12
o2
o2
o2
n7.82
v8
v9
v9
o2
o2
o2
n3.82
v8
v9
v12
o2
o2
o2
n2.36
v8
v9
v13
o2
o2
o2
n0.48
v8
v10
v14
o2
o2
o2
n7.89
v8
v10
v15
o2
o2
o2
n1.92
v8
v11
v14
o2
o2
o2
n0.52
v9
v9
v12
o2
o2
o2
n6.14
v9
v11
v15
o2
o2
o2
n9.97
v9
v12
v13
o16
o2
o2
o2
n8.38
v9
v14
v14
o2
o2
o2
n1.53
v9
v14
v15
o16
o2
o2
o2
n0.64
v10
v14
v14
o16
o2
o2
o2
n4.93
v11
v11
v13
o2
o2
o2
n4.82
v12
v12
v15
k15
16
32
48
64
80
96
112
128
144
160
176
192
208
224
240
J0 16
0 4.03
1 1.99
2 3.02
3 2.03
4 4.57
5 6.42
6 3.2
7 -1.94
8 4.56
9 0.55
10 7.1
11 7.23
12 5.62
13 -4.25
14 1.93
15 9.59
J1 16
0 9.45
1 1.07
2 3.7
3 2.32
4 -8.85
5 6.65
6 2.9
7 7.85
8 5.88
9 9.39
10 7.56
11 6.18
12 5.84
13 2.84
14 3.71
15 8.8
J2 16
0 3.69
1 8.75
2 0.07
3 7.25
4 2.39
5 7.69
6 5.32
7 7.94
8 1.46
9 7.37
10 8.19
11 0.74
12 5.62
13 2.95
14 1.18
15 2.18
J3 16
0 2.61
1 6.27
2 2.53
3 0.25
4 5.07
5 -3.68
6 -1.37
7 5.64
8 3.78
9 2.84
10 0.94
11 7.12
12 7.8
13 8.85
14 8.69
15 6.48
J4 16
0 2.62
1 8.73
2 8.43
3 0.71
4 7.54
5 8.81
6 5.68
7 0.11
8 5.61
9 -9.92
10 0.27
11 2.95
12 6.55
13 9.75
14 4.97
15 5.92
J5 16
0 9.38
1 7.15
2 5.18
3 8.89
4 3.23
5 2.38
6 4.17
7 1.8
8 8.11
9 9.23
10 9.13
11 9.15
12 4.85
13 3.22
14 6.1
15 -7.06
J6 16
0 1.6
1 0.22
2 5.23
3 4.57
4 7.45
5 8.08
6 9.35
7 4.09
8 -2.04
9 9.45
10 7.55
11 6.57
12 6.96
13 5.17
14 6.43
15 0.22
J7 16
0 6.78
1 2.09
2 1.07
3 8.39
4 9.77
5 3.68
6 4.65
7 4.5
8 -5.85
9 6.88
10 5.82
11 5.69
12 7.48
13 3.06
14 7.97
15 1.2
J8 16
0 8.17
1 9.42
2 9.73
3 0.36
4 4.91
5 3.65
6 8.24
7 -7.45
8 6.99
9 6.82
10 6.87
11 -1.12
12 1.48
13 -4.57
14 5.79
15 2.51
J9 16
0 4.76
1 4.28
2 3.34
3 0.22
4 6.28
5 0.76
6 6.89
7 0.1
8 7.48
9 6.4
10 9.33
11 8.06
12 5.64
13 2.32
14 2.65
15 -8.79
J10 16
0 6.94
1 4.08
2 6.13
3 1.2
4 8.32
5 9.47
6 0.35
7 4.92
8 -6.94
9 6.68
10 -7.7
11 9.15
12 0.6
13 9.44
14 -0.15
15 6.85
J11 16
0 7.43
1 0.03
2 0.43
3 9.53
4 4.94
5 2.75
6 2.86
7 2.02
8 9.21
9 5.66
10 -5.83
11 6.93
12 6.25
13 4.44
14 7.95
15 3.54
J12 16
0 9.83
1 5.95
2 6.59
3 9.67
4 8.39
5 8.66
6 6.99
7 7.58
8 3.98
9 4.4
10 7.44
11 7.44
12 5.95
13 8.17
14 -9.74
15 2.84
J13 16
0 3.12
1 -0.99
2 3.17
3 4.77
4 6.27
5 4.49
6 4.8
7 6.2
8 6.42
9 8.97
10 2.57
11 3.28
12 6.16
13 3.21
14 3.99
15 0.32
J14 16
0 9.63
1 2.56
2 1.69
3 7.17
4 3.93
5 1.53
6 3.57
7 5.13
8 6.53
9 5.89
10 5.96
11 9.57
12 9.51
13 7.4
14 0.54
15 9.78
J15 16
0 2.28
1 -7.58
2 9.57
3 3.65
4 -2.48
5 8.89
6 0.89
7 6.25
8 -8.98
9 2.87
10 5.21
11 1.84
12 0.28
13 6.45
14 8.44
15 5.02
G0 16
0 2.22
1 6
2 6.31
3 5.57
4 7.93
5 -3.72
6 -4.73
7 0.94
8 6.67
9 -6.84
10 0.28
11 -1.11
12 9.87
13 6.52
14 7.13
15 8.09
